# Objective value = 1.9580701697167965e+03
x[0] 0
x[1] 0
x[2] 0
x[3] 1
x[4] 0
x[5] 1
x[6] 1
x[7] 1
x[8] 0
x[9] 1
x[10] 1
x[11] 1
x[12] 1
x[13] 0
x[14] 1
x[15] 0
x[16] 1
x[17] 1
x[18] 1
x[19] 0
x[20] 1
x[21] 0
x[22] 1
x[23] 0
x[24] 0
x[25] 0
x[26] 1
x[27] 1
x[28] 1
x[29] 0
x[30] 1
x[31] 0
x[32] 1
x[33] 1
x[34] 1
x[35] 0
x[36] 1
x[37] 0
x[38] 1
x[39] 0
x[40] 1
x[41] 0
x[42] 0
x[43] 1
x[44] 0
x[45] 0
x[46] 0
x[47] 1
x[48] 1
x[49] 1
x[50] 0
x[51] 0
x[52] 0
x[53] 1
x[54] 0
x[55] 1
x[56] 0
x[57] 0
x[58] 0
x[59] 1
x[60] 1
x[61] 1
x[62] 0
x[63] 0
x[64] 1
x[65] 1
x[66] 1
x[67] 1
x[68] 1
x[69] 1
x[70] 1
x[71] 0
x[72] 0
x[73] 1
x[74] 0
x[75] 1
x[76] 0
x[77] 0
x[78] 1
x[79] 0
x[80] 1
x[81] 0
x[82] 1
x[83] 1
x[84] 1
x[85] 1
x[86] 0
x[87] 1
x[88] 1
x[89] 1
x[90] 0
x[91] 1
x[92] 1
x[93] 0
x[94] 1
x[95] 0
x[96] 1
x[97] 0
x[98] 0
x[99] 1
x[100] 0
x[101] 1
x[102] 0
x[103] 1
x[104] 1
x[105] 0
x[106] 1
x[107] 1
x[108] 1
x[109] 1
x[110] 0
x[111] 1
x[112] 1
x[113] 0
x[114] 1
x[115] 0
x[116] 1
x[117] 1
x[118] 1
x[119] 1
x[120] 0
x[121] 1
x[122] 1
x[123] 1
x[124] 0
x[125] 1
x[126] 1
x[127] 1
x[128] 0
x[129] 0
x[130] 1
x[131] 1
x[132] 0
x[133] 1
x[134] 0
x[135] 0
x[136] 1
x[137] 0
x[138] 0
x[139] 1
x[140] 1
x[141] 1
x[142] 1
x[143] 0
x[144] 1
x[145] 1
x[146] 0
x[147] 0
x[148] 1
x[149] 0
x[150] 1
x[151] 1
x[152] 0
x[153] 1
x[154] 1
x[155] 0
x[156] 1
x[157] 0
x[158] 0
x[159] 0
x[160] 1
x[161] 1
x[162] 1
x[163] 0
x[164] 1
x[165] 0
x[166] 0
x[167] 1
x[168] 1
x[169] 0
x[170] 1
x[171] 0
x[172] 0
x[173] 0
x[174] 1
x[175] 0
x[176] 0
x[177] 0
x[178] 1
x[179] 0
x[180] 1
x[181] 1
x[182] 1
x[183] 0
x[184] 1
x[185] 1
x[186] 1
x[187] 1
x[188] 1
x[189] 0
x[190] 1
x[191] 1
x[192] 1
x[193] 0
x[194] 1
x[195] 1
x[196] 1
x[197] 1
x[198] 0
x[199] 1
x[200] 1
x[201] 1
x[202] 1
x[203] 1
x[204] 1
x[205] 0
x[206] 0
x[207] 1
x[208] 1
x[209] 1
x[210] 1
x[211] 0
x[212] 0
x[213] 0
x[214] 1
x[215] 1
x[216] 0
x[217] 1
x[218] 0
x[219] 0
x[220] 1
x[221] 0
x[222] 1
x[223] 0
x[224] 1
x[225] 1
x[226] 1
x[227] 0
x[228] 0
x[229] 1
x[230] 0
x[231] 0
x[232] 1
x[233] 0
x[234] 0
x[235] 1
x[236] 1
x[237] 0
x[238] 1
x[239] 0
x[240] 1
x[241] 0
x[242] 0
x[243] 0
x[244] 1
x[245] 1
x[246] 1
x[247] 0
x[248] 0
x[249] 1
x[250] 1
x[251] 1
x[252] 0
x[253] 1
x[254] 0
x[255] 1
x[256] 1
x[257] 1
x[258] 1
x[259] 0
x[260] 1
x[261] 1
x[262] 0
x[263] 1
x[264] 1
x[265] 0
x[266] 0
x[267] 0
x[268] 1
x[269] 0
x[270] 1
x[271] 0
x[272] 1
x[273] 0
x[274] 1
x[275] 1
x[276] 1
x[277] 0
x[278] 1
x[279] 0
x[280] 0
x[281] 0
x[282] 0
x[283] 1
x[284] 0
x[285] 0
x[286] 1
x[287] 0
x[288] 1
x[289] 1
x[290] 0
x[291] 0
x[292] 1
x[293] 1
x[294] 1
x[295] 1
x[296] 1
x[297] 1
x[298] 0
x[299] 1
x[300] 0
x[301] 0
x[302] 0
x[303] 1
x[304] 1
x[305] 0
x[306] 1
x[307] 1
x[308] 0
x[309] 0
x[310] 0
x[311] 1
x[312] 1
x[313] 1
x[314] 0
x[315] 1
x[316] 1
x[317] 1
x[318] 1
x[319] 1
x[320] 0
x[321] 1
x[322] 1
x[323] 1
x[324] 1
x[325] 0
x[326] 1
x[327] 0
x[328] 0
x[329] 0
x[330] 1
x[331] 0
x[332] 1
x[333] 0
x[334] 0
x[335] 1
x[336] 0
x[337] 1
x[338] 1
x[339] 1
x[340] 1
x[341] 1
x[342] 1
x[343] 1
x[344] 0
x[345] 1
x[346] 0
x[347] 1
x[348] 0
x[349] 1
x[350] 0
x[351] 0
x[352] 1
x[353] 1
x[354] 0
x[355] 1
x[356] 0
x[357] 0
x[358] 0
x[359] 0
x[360] 0
x[361] 0
x[362] 0
x[363] 1
x[364] 1
x[365] 0
x[366] 0
x[367] 1
x[368] 1
x[369] 0
x[370] 0
x[371] 1
x[372] 1
x[373] 0
x[374] 0
x[375] 0
x[376] 0
x[377] 1
x[378] 0
x[379] 1
x[380] 1
x[381] 0
x[382] 0
x[383] 1
x[384] 1
x[385] 1
x[386] 0
x[387] 1
x[388] 0
x[389] 1
x[390] 0
x[391] 1
x[392] 1
x[393] 1
x[394] 1
x[395] 0
x[396] 1
x[397] 1
x[398] 1
x[399] 1
x[400] 0
x[401] 0
x[402] 1
x[403] 1
x[404] 1
x[405] 1
x[406] 0
x[407] 1
x[408] 0
x[409] 0
x[410] 0
x[411] 1
x[412] 0
x[413] 0
x[414] 1
x[415] 1
x[416] 1
x[417] 1
x[418] 0
x[419] 0
x[420] 1
x[421] 1
x[422] 0
x[423] 1
x[424] 0
x[425] 0
x[426] 1
x[427] 1
x[428] 0
x[429] 0
x[430] 0
x[431] 1
x[432] 1
x[433] 1
x[434] 0
x[435] 0
x[436] 1
x[437] 0
x[438] 1
x[439] 0
x[440] 0
x[441] 1
x[442] 0
x[443] 0
x[444] 1
x[445] 0
x[446] 1
x[447] 1
x[448] 0
x[449] 0
x[450] 1
x[451] 0
x[452] 0
x[453] 1
x[454] 0
x[455] 0
x[456] 0
x[457] 0
x[458] 1
x[459] 1
x[460] 0
x[461] 1
x[462] 1
x[463] 0
x[464] 0
x[465] 0
x[466] 1
x[467] 1
x[468] 1
x[469] 0
x[470] 0
x[471] 1
x[472] 1
x[473] 0
x[474] 0
x[475] 1
x[476] 1
x[477] 1
x[478] 0
x[479] 1
x[480] 1
x[481] 1
x[482] 0
x[483] 0
x[484] 1
x[485] 1
x[486] 1
x[487] 1
x[488] 0
x[489] 0
x[490] 0
x[491] 0
x[492] 1
x[493] 0
x[494] 1
x[495] 1
x[496] 1
x[497] 0
x[498] 0
x[499] 0
x[500] 0
x[501] 1
x[502] 0
x[503] 1
x[504] 0
x[505] 1
x[506] 1
x[507] 0
x[508] 0
x[509] 0
x[510] 1
x[511] 0
x[512] 1
x[513] 1
x[514] 0
x[515] 1
x[516] 0
x[517] 1
x[518] 1
x[519] 1
x[520] 1
x[521] 0
x[522] 1
x[523] 1
x[524] 1
x[525] 0
x[526] 1
x[527] 1
x[528] 0
x[529] 1
x[530] 1
x[531] 1
x[532] 0
x[533] 1
x[534] 0
x[535] 0
x[536] 0
x[537] 1
x[538] 0
x[539] 1
x[540] 1
x[541] 1
x[542] 0
x[543] 1
x[544] 1
x[545] 1
x[546] 1
x[547] 0
x[548] 0
x[549] 1
x[550] 0
x[551] 1
x[552] 1
x[553] 1
x[554] 0
x[555] 0
x[556] 0
x[557] 1
x[558] 0
x[559] 1
x[560] 1
x[561] 0
x[562] 1
x[563] 1
x[564] 1
x[565] 1
x[566] 1
x[567] 0
x[568] 1
x[569] 1
x[570] 0
x[571] 1
x[572] 0
x[573] 0
x[574] 1
x[575] 1
x[576] 1
x[577] 0
x[578] 1
x[579] 0
x[580] 1
x[581] 1
x[582] 0
x[583] 0
x[584] 0
x[585] 1
x[586] 1
x[587] 1
x[588] 0
x[589] 1
x[590] 1
x[591] 0
x[592] 0
x[593] 0
x[594] 0
x[595] 0
x[596] 0
x[597] 1
x[598] 1
x[599] 1
x[600] 1
x[601] 0
x[602] 1
x[603] 1
x[604] 1
x[605] 1
x[606] 1
x[607] 0
x[608] 0
x[609] 1
x[610] 1
x[611] 1
x[612] 0
x[613] 1
x[614] 1
x[615] 0
x[616] 1
x[617] 0
x[618] 1
x[619] 1
x[620] 0
x[621] 0
x[622] 0
x[623] 0
x[624] 0
x[625] 0
x[626] 0
x[627] 1
x[628] 0
x[629] 1
x[630] 0
x[631] 1
x[632] 1
x[633] 0
x[634] 0
x[635] 1
x[636] 0
x[637] 1
x[638] 0
x[639] 1
x[640] 1
x[641] 1
x[642] 0
x[643] 1
x[644] 0
x[645] 1
x[646] 1
x[647] 1
x[648] 0
x[649] 1
x[650] 0
x[651] 1
x[652] 1
x[653] 1
x[654] 0
x[655] 0
x[656] 0
x[657] 0
x[658] 1
x[659] 1
x[660] 1
x[661] 1
x[662] 0
x[663] 1
x[664] 0
x[665] 1
x[666] 1
x[667] 1
x[668] 1
x[669] 1
x[670] 0
x[671] 1
x[672] 0
x[673] 1
x[674] 0
x[675] 0
x[676] 1
x[677] 1
x[678] 1
x[679] 1
x[680] 1
x[681] 1
x[682] 0
x[683] 1
x[684] 1
x[685] 1
x[686] 1
x[687] 1
x[688] 0
x[689] 1
x[690] 0
x[691] 0
x[692] 1
x[693] 0
x[694] 1
x[695] 1
x[696] 1
x[697] 0
x[698] 0
x[699] 0
x[700] 0
x[701] 1
x[702] 0
x[703] 0
x[704] 0
x[705] 0
x[706] 0
x[707] 1
x[708] 0
x[709] 0
x[710] 0
x[711] 1
x[712] 0
x[713] 1
x[714] 1
x[715] 0
x[716] 0
x[717] 1
x[718] 1
x[719] 0
x[720] 1
x[721] 0
x[722] 1
x[723] 0
x[724] 1
x[725] 0
x[726] 1
x[727] 0
x[728] 0
x[729] 1
x[730] 1
x[731] 1
x[732] 1
x[733] 0
x[734] 0
x[735] 1
x[736] 0
x[737] 1
x[738] 0
x[739] 1
x[740] 0
x[741] 1
x[742] 1
x[743] 1
x[744] 1
x[745] 1
x[746] 0
x[747] 1
x[748] 1
x[749] 1
x[750] 0
x[751] 1
x[752] 1
x[753] 1
x[754] 1
x[755] 1
x[756] 1
x[757] 1
x[758] 1
x[759] 1
x[760] 0
x[761] 0
x[762] 1
x[763] 0
x[764] 0
x[765] 1
x[766] 1
x[767] 0
x[768] 0
x[769] 1
x[770] 1
x[771] 1
x[772] 0
x[773] 0
x[774] 1
x[775] 1
x[776] 0
x[777] 0
x[778] 1
x[779] 0
x[780] 0
x[781] 1
x[782] 0
x[783] 1
x[784] 1
x[785] 1
x[786] 1
x[787] 0
x[788] 0
x[789] 0
x[790] 0
x[791] 1
x[792] 0
x[793] 0
x[794] 1
x[795] 1
x[796] 0
x[797] 1
x[798] 0
x[799] 1
x[800] 1
x[801] 0
x[802] 1
x[803] 1
x[804] 1
x[805] 0
x[806] 0
x[807] 0
x[808] 1
x[809] 1
x[810] 0
x[811] 1
x[812] 1
x[813] 1
x[814] 1
x[815] 1
x[816] 1
x[817] 1
x[818] 1
x[819] 1
x[820] 1
x[821] 0
x[822] 0
x[823] 0
x[824] 0
x[825] 0
x[826] 1
x[827] 1
x[828] 0
x[829] 0
x[830] 0
x[831] 1
x[832] 0
x[833] 1
x[834] 0
x[835] 1
x[836] 1
x[837] 0
x[838] 1
x[839] 1
x[840] 0
x[841] 0
x[842] 1
x[843] 0
x[844] 1
x[845] 0
x[846] 0
x[847] 1
x[848] 1
x[849] 1
x[850] 1
x[851] 1
x[852] 1
x[853] 1
x[854] 1
x[855] 1
x[856] 0
x[857] 0
x[858] 1
x[859] 0
x[860] 1
x[861] 0
x[862] 0
x[863] 0
x[864] 1
x[865] 1
x[866] 1
x[867] 0
x[868] 1
x[869] 1
x[870] 1
x[871] 1
x[872] 0
x[873] 1
x[874] 1
x[875] 1
x[876] 1
x[877] 1
x[878] 1
x[879] 0
x[880] 1
x[881] 0
x[882] 0
x[883] 0
x[884] 1
x[885] 0
x[886] 0
x[887] 0
x[888] 1
x[889] 0
x[890] 1
x[891] 1
x[892] 1
x[893] 0
x[894] 0
x[895] 1
x[896] 1
x[897] 0
x[898] 0
x[899] 1
x[900] 1
x[901] 0
x[902] 1
x[903] 0
x[904] 1
x[905] 0
x[906] 1
x[907] 0
x[908] 0
x[909] 1
x[910] 0
x[911] 1
x[912] 1
x[913] 1
x[914] 1
x[915] 1
x[916] 1
x[917] 0
x[918] 1
x[919] 0
x[920] 1
x[921] 0
x[922] 1
x[923] 1
x[924] 0
x[925] 1
x[926] 0
x[927] 1
x[928] 0
x[929] 1
x[930] 1
x[931] 0
x[932] 0
x[933] 0
x[934] 1
x[935] 0
x[936] 1
x[937] 0
x[938] 0
x[939] 0
x[940] 1
x[941] 1
x[942] 0
x[943] 0
x[944] 1
x[945] 1
x[946] 0
x[947] 0
x[948] 0
x[949] 0
x[950] 0
x[951] 1
x[952] 0
x[953] 1
x[954] 0
x[955] 0
x[956] 1
x[957] 1
x[958] 1
x[959] 0
x[960] 1
x[961] 0
x[962] 1
x[963] 1
x[964] 1
x[965] 1
x[966] 0
x[967] 1
x[968] 0
x[969] 1
x[970] 0
x[971] 1
x[972] 0
x[973] 0
x[974] 0
x[975] 0
x[976] 0
x[977] 1
x[978] 0
x[979] 0
x[980] 1
x[981] 1
x[982] 0
x[983] 1
x[984] 1
x[985] 0
x[986] 0
x[987] 0
x[988] 1
x[989] 1
x[990] 0
x[991] 0
x[992] 0
x[993] 0
x[994] 1
x[995] 1
x[996] 1
x[997] 1
x[998] 1
x[999] 1
